File "./GRP656-10/SMT.v", line 6, characters 0-26:
Warning: Interpreting this declaration as if a global declaration prefixed by
"Local", i.e. as a global declaration which shall not be available without
qualification when imported. [local-declaration,vernacular,default]
File "./GRP656-10/SMT.v", line 7, characters 0-28:
Warning: Interpreting this declaration as if a global declaration prefixed by
"Local", i.e. as a global declaration which shall not be available without
qualification when imported. [local-declaration,vernacular,default]
File "./GRP656-10/SMT.v", line 8, characters 0-26:
Warning: Interpreting this declaration as if a global declaration prefixed by
"Local", i.e. as a global declaration which shall not be available without
qualification when imported. [local-declaration,vernacular,default]
File "./GRP656-10/SMT.v", line 9, characters 0-29:
Warning: Interpreting this declaration as if a global declaration prefixed by
"Local", i.e. as a global declaration which shall not be available without
qualification when imported. [local-declaration,vernacular,default]
File "./GRP656-10/SMT.v", line 10, characters 0-21:
Warning: Interpreting this declaration as if a global declaration prefixed by
"Local", i.e. as a global declaration which shall not be available without
qualification when imported. [local-declaration,vernacular,default]
File "./GRP656-10/SMT.v", line 11, characters 0-23:
Warning: Interpreting this declaration as if a global declaration prefixed by
"Local", i.e. as a global declaration which shall not be available without
qualification when imported. [local-declaration,vernacular,default]
veriT --proof-prune --proof-merge --proof-with-sharing --cnf-definitional --disable-ackermann --input=smtlib2 --proof=/tmp/verit_coqf787d4.vtlog /tmp/verit_coqf787d4.smt2 2> /tmp/warnings_veritc20936.log
veriT dev - the SMT-solver veriT (UFRN/LORIA).
success
success
success
success
success
success
success
success
success
success
success
success
success
success
unknown
success
success
Verit = 0.00007
(set-option :print-success true)
(set-option :produce-assignments true)
(set-option :produce-proofs true)
(set-logic QF_UFLIA)
(declare-fun op_4 (Int Int ) Int)
(declare-fun op_2 (Int Int ) Int)
(declare-fun op_0 () Int)
(declare-fun op_3 (Int ) Int)
(declare-fun op_1 (Int ) Int)
(assert (not (= (op_4 (op_2 op_0 (op_1 op_0)) (op_2 (op_3 op_0) op_0)) (op_4 (op_1 op_0) (op_3 op_0)))))
(check-sat)
(get-model)
File "./GRP656-10/SMT.v", line 23, characters 2-5:
Error:
CVC4 returned sat. Here is the model:

X0 := 0
x1 := fun _ => 1
mult := fun BOUND_VARIABLE_322 BOUND_VARIABLE_323 => if BOUND_VARIABLE_322 = 0 then if BOUND_VARIABLE_323 = 1 then -1 else -2 else -2
x1_2 := fun _ => 2
tuple := fun BOUND_VARIABLE_322 BOUND_VARIABLE_323 => if BOUND_VARIABLE_322 = -1 then if BOUND_VARIABLE_323 = -2 then 3 else -3 else -3

